n = 10;
boxes = [|925, 500, 225, 21
         |500, 500, 500, 30
         |475, 225, 325, 28
         |450, 350, 350, 19
         |375, 225, 325, 41
         |1500, 125, 200, 26
         |600, 475, 200, 23
         |400, 400, 125, 25
         |375, 375, 300, 20
         |500, 375, 400, 17|];
